ATOMIC_SPECIES
B    10.811000 B.upf
C    12.010700 C.upf
Al   26.981539 Al.upf
Eu   151.964000 Eu.upf

NUMERICAL_ORBITAL
B.orb
C.orb
Al.orb
Eu.orb

LATTICE_CONSTANT
1.0

LATTICE_VECTORS
      5.687300205200       0.000000000000       0.000000000000
     -2.843650102600       4.925346456700       0.000000000000
      0.000000000000       0.000000000000      39.601898193400

ATOMIC_POSITIONS
Direct

B
0.0
36
      0.372442229437       0.582598742252       0.414597535219
      0.521566119429       0.075280586304       0.381124983524
      0.918707822271       0.665796020938       0.393740855778
      0.924471185194       0.337385958485       0.470219451401
      0.034063215582       0.098706743370       0.477522103294
      0.415390380893       0.423752103872       0.450183386587
      0.147517259846       0.555576496894       0.295387523841
      0.421461388401       0.147689292791       0.302926179998
      0.896508319103       0.656911723050       0.309345031272
      0.969510427477       0.205445755031       0.234524624933
      0.983337446193       0.720956837292       0.235895613279
      0.477024260005       0.294894043823       0.231086252169
      0.287563561402       0.362959270064       0.309739415345
      0.177191536420       0.843443138801       0.274745910888
      0.603859194086       0.436056050224       0.279169534592
      0.688478924490       0.930961463589       0.353111448089
      0.606649631669       0.403231069719       0.380216502699
      0.177064818213       0.857628046100       0.368762352090
      0.834996114394       0.055910520416       0.197483960202
      0.953144925932       0.832296560754       0.196718458033
      0.594196819234       0.182907023455       0.190654502686
      0.888060339165       0.080148754356       0.434465161727
      0.696014521722       0.396943807000       0.455830918517
      0.248454861541       0.065788115512       0.442050017076
      0.547761459662       0.904435027116       0.169372299413
      0.690381371792       0.498739248993       0.179385140849
      0.208256909337       0.793866836490       0.186478306269
      0.187662334995       0.590351102869       0.249444882152
      0.526127998787       0.101115452756       0.264774839158
      0.828160815735       0.786816777643       0.271084888861
      0.617815168986       0.905087428203       0.406432309247
      0.705926564821       0.663211021098       0.425534040874
      0.276955253516       0.841533268068       0.410993215523
      0.356049598273       0.651359306868       0.332524481155
      0.439985220016       0.987130698288       0.338755787200
      0.844329981524       0.710296879440       0.352359683405

C
0.0
10
      0.180732359955       0.381176430015       0.352268333095
      0.177645122239       0.251927386652       0.416862114604
      0.306193359886       0.366528562664       0.384409315851
      0.806137615972       0.065128354770       0.269377848533
      0.934481824991       0.180774100125       0.335819287059
      0.968069904548       0.239018547205       0.300080176662
      0.500276995670       0.618931769571       0.166265449469
      0.298166086578       0.444436578014       0.225740670255
      0.308047506345       0.580034733543       0.191164317753
      0.225549344190       0.427665181832       0.482581191793

Al
0.0
19
      0.994029489347       0.692131712917       0.743643397101
      0.169788627883       0.040985799631       0.691279936497
      0.510935363399       0.215480962240       0.638435461588
      0.683735494143       0.565811297205       0.586831527887
      0.851717129875       0.895092491693       0.532192039714
      0.002796291856       0.208558131869       0.745568419535
      0.161121274474       0.525850425694       0.690197227267
      0.510887092914       0.719581141055       0.638844309941
      0.674957058902       0.060309401182       0.583260246805
      0.828869249184       0.397679907285       0.532711404403
      0.501871421737       0.207153281295       0.745126533316
      0.663675277797       0.530101214981       0.690905927939
      0.009120214943       0.714240337273       0.638938029243
      0.200379411542       0.072369427549       0.582617403120
      0.349730255158       0.405507444499       0.531250137059
      0.494404545099       0.692277648266       0.744154849134
      0.669247757130       0.040501375791       0.691705369533
      0.009861512067       0.217821721692       0.635620466639
      0.185243209421       0.573435805609       0.582417304525

Eu
0.0
1
      0.347901223212       0.888947655958       0.502719706332
