ATOMIC_SPECIES
B    10.811000 B.upf
C    12.010700 C.upf
Al   26.981539 Al.upf
Sm   150.360000 Sm.upf

NUMERICAL_ORBITAL
B.orb
C.orb
Al.orb
Sm.orb

LATTICE_CONSTANT
1.0

LATTICE_VECTORS
      5.687300205200       0.000000000000       0.000000000000
     -2.843650102600       4.925346456700       0.000000000000
      0.000000000000       0.000000000000      39.601898193400

ATOMIC_POSITIONS
Direct

B
0.0
36
      0.439936246210       0.555970963176       0.410904876447
      0.549208532643       0.091013135662       0.376846627555
      0.973140889914       0.702972108788       0.389611251088
      0.003494212271       0.339696692555       0.475328532017
      0.043678676670       0.065296382364       0.467376469705
      0.575123095460       0.509473913613       0.482320084030
      0.170689865983       0.575820909016       0.289492264582
      0.449500735956       0.168734249912       0.297989991233
      0.916854447468       0.678145794063       0.304630833038
      0.984294645547       0.221378183525       0.228662139788
      0.997120431862       0.738761235793       0.230905176502
      0.491058362336       0.311215391108       0.225603339182
      0.311150126682       0.383102391261       0.303593405992
      0.196030864987       0.864824142132       0.269588933742
      0.625144429716       0.457015913448       0.274111846917
      0.723088524285       0.948485471976       0.346935970182
      0.639773026476       0.439333994692       0.380500833651
      0.214330326610       0.863587096492       0.362215116038
      0.847542398022       0.072842186029       0.191779671759
      0.966591595652       0.849410873727       0.191597091921
      0.605524821296       0.199407857333       0.185116074462
      0.928045769112       0.100209743679       0.427435492314
      0.857190577137       0.559557329926       0.464756550284
      0.064132064638       0.842492818243       0.435179250175
      0.561107195388       0.922146562239       0.163871998071
      0.702154498628       0.515921715051       0.174041048531
      0.222730660039       0.812616559831       0.181219671185
      0.204088088291       0.609712387405       0.243918176168
      0.544355368693       0.120831636920       0.259335755184
      0.847516535781       0.805912220125       0.266201708285
      0.622091283185       0.925659959875       0.409725602892
      0.747606537407       0.600482878433       0.422933947620
      0.299278101091       0.845643504985       0.404318152238
      0.372891795186       0.676541143004       0.326861477728
      0.479121415607       0.008968229835       0.333470879998
      0.874264196125       0.736175063618       0.348891555673

C
0.0
10
      0.210650943992       0.392516955726       0.344876913068
      0.180465248593       0.302111058704       0.408117113489
      0.308929005338       0.366968777923       0.377301482176
      0.824788862176       0.084635585227       0.263531689132
      0.958301099079       0.197234716628       0.328820318132
      0.989220993553       0.257853520294       0.293671946469
      0.513649139909       0.636836042160       0.160882682440
      0.312949956404       0.462297466491       0.220286862702
      0.322446249541       0.597994413565       0.185904173652
      0.281375058833       0.379675076021       0.479642082953

Al
0.0
19
      0.844318613949       0.691287474919       0.753277530255
      0.012708556361       0.015965936450       0.699315049285
      0.347432964121       0.189418075628       0.647200637834
      0.673676529865       0.345457786419       0.593006150905
      0.024696682259       0.015911331873       0.541906183622
      0.853959522523       0.193394653327       0.752208235523
      0.011463386702       0.528048473901       0.699104624696
      0.347983235066       0.690218029091       0.647131848330
      0.672855689267       0.855535455793       0.591718194188
      0.025791117947       0.509924311850       0.542585719727
      0.348188649631       0.197413684195       0.753372092670
      0.512952952159       0.524031300764       0.699315005707
      0.844234056433       0.689640766547       0.645407066178
      0.188558342000       0.854893243591       0.593683596830
      0.508960170793       0.502026415041       0.541736984005
      0.344481596415       0.687796685938       0.752951536535
      0.512548088017       0.024912902549       0.699665568396
      0.851695263627       0.189093860038       0.647635221932
      0.184167254522       0.351856242375       0.595130500287

Sm
0.0
1
      0.529360428570       0.012359117139       0.512971192707
