# STRU converted from POSCAR: C-hollow
# Coordinates are Direct fractional coordinates.
# Replace pseudopotential/orbital filenames below with the actual files in your ABACUS working directory.

ATOMIC_SPECIES
B       10.811000    B.upf
C       12.011000    C.upf
Al      26.981538    Al.upf
Gd     157.250000    Gd.upf

NUMERICAL_ORBITAL
B.orb
C.orb
Al.orb
Gd.orb

LATTICE_CONSTANT
1.8897261254578281  # 1 Angstrom in Bohr; lattice vectors below are in Angstrom

LATTICE_VECTORS
      5.6873002051999997      0.0000000000000000      0.0000000000000000
     -2.8436501025999998      4.9253464566999998      0.0000000000000000
      0.0000000000000000      0.0000000000000000     39.6018981933999967

ATOMIC_POSITIONS
Direct

B
0.0
36
    0.4056759289736132    0.6779811045239398    0.4196687152329436  1 1 1
    0.5130040099403611    0.1257953621416320    0.3803613002685845  1 1 1
    0.9031830925279486    0.6969972169637840    0.3958725134329820  1 1 1
    0.2806973992939391    0.4542940088543576    0.4504551105911665  1 1 1
    0.0163688318131760    0.9603418308924239    0.4750446700044990  1 1 1
    0.3595144043782101    0.1807345548718226    0.4560578525831515  1 1 1
    0.1441002462725111    0.6208352206900284    0.2954638401084554  1 1 1
    0.4190166295481385    0.2269562966134834    0.3044340001543479  1 1 1
    0.8814180490001561    0.7132919248542542    0.3099739848801146  1 1 1
    0.9540683551054241    0.2661253679084087    0.2357905776386275  1 1 1
    0.9697151961965850    0.7824867052818815    0.2373436846618633  1 1 1
    0.4598269557102431    0.3501681121759576    0.2310874068113535  1 1 1
    0.2659756597297696    0.4166407111205001    0.3144696643027736  1 1 1
    0.1673582379511367    0.9087179848730741    0.2760907450143517  1 1 1
    0.6005500141843366    0.5032692820642826    0.2778226643508969  1 1 1
    0.6931081363935597    0.9811235885259968    0.3496938552858919  1 1 1
    0.5730896288790812    0.4616555004881252    0.3798673140072680  1 1 1
    0.1386990740978953    0.8351704680722547    0.3606609767188401  1 1 1
    0.8190893577538415    0.1143704118994124    0.1989451915356211  1 1 1
    0.9369218870781266    0.8896007497325604    0.1980285051501514  1 1 1
    0.5755219612015346    0.2415705798947294    0.1913851016238167  1 1 1
    0.9295679090119867    0.1973700023260520    0.4605846809582529  1 1 1
    0.6600328714639896    0.2174257594626904    0.4516184616284917  1 1 1
    0.0180338345127829    0.9394325691193701    0.4307612701646599  1 1 1
    0.5340532286530910    0.9647852308990554    0.1705746766128958  1 1 1
    0.6747785483793841    0.5586132529269272    0.1802167863149449  1 1 1
    0.1949247419509473    0.8558331226262202    0.1874709782121111  1 1 1
    0.1744374025883976    0.6476575105947845    0.2507553421964484  1 1 1
    0.5098398531902552    0.1651807562503949    0.2659550654396451  1 1 1
    0.8175829560627154    0.8524399096265354    0.2727228038543655  1 1 1
    0.5728288493972811    0.0076992254164419    0.4148153596945295  1 1 1
    0.7121964812892698    0.3639203767508771    0.4122156459610484  1 1 1
    0.2406610432312589    0.8331850631572615    0.4019440954940614  1 1 1
    0.3389059379573514    0.7244695150420887    0.3343810545920235  1 1 1
    0.4395778909162187    0.0569210840983769    0.3389463331427999  1 1 1
    0.8007153957900250    0.7390592829782812    0.3538065563329519  1 1 1

C
0.0
10
    0.1681054856673425    0.4476138790669718    0.3558898635241790  1 1 1
    0.1668469643493688    0.2391814955286183    0.4212662336361426  1 1 1
    0.2898789503844759    0.4346161905117238    0.3897285572211829  1 1 1
    0.7943982087495879    0.1314271244828473    0.2710077350305480  1 1 1
    0.9350741036603021    0.2492215749955728    0.3365463298081910  1 1 1
    0.9554582164866134    0.3136173686753941    0.3011895123206660  1 1 1
    0.4848694390665742    0.6790848730581523    0.1669368232700781  1 1 1
    0.2839568546736477    0.5043020570182543    0.2263975856735244  1 1 1
    0.2933617121354559    0.6402906097579183    0.1919170491346237  1 1 1
    0.2166008912924143    0.2922615316866303    0.4837694151607664  1 1 1

Al
0.0
19
    0.0166737830918126    0.6491309016083854    0.7425051372353725  1 1 1
    0.1844209464569818    0.9892512391496910    0.6897211741226188  1 1 1
    0.5300488727177191    0.1511528889577703    0.6377104907506701  1 1 1
    0.7096198106627424    0.4903101278410125    0.5861774710469315  1 1 1
    0.8796318714662882    0.8052270050814140    0.5308061638244566  1 1 1
    0.0259455272281948    0.1570825865339262    0.7446538734715000  1 1 1
    0.1813880881608746    0.4735666332784911    0.6895382088941688  1 1 1
    0.5329651204453730    0.6526722212402892    0.6376618635542762  1 1 1
    0.7038150910365834    0.9824370937230701    0.5816098840815497  1 1 1
    0.8712585333990771    0.3297764219725591    0.5321799560048349  1 1 1
    0.5165552179577396    0.1565357367159225    0.7437801255597326  1 1 1
    0.6797598817933702    0.4778341775053098    0.6901341546877283  1 1 1
    0.0315789359885988    0.6521308023559479    0.6381098126338590  1 1 1
    0.2242654777964632    0.9933264155061075    0.5812858685571770  1 1 1
    0.3776813652853330    0.3332663683885512    0.5315757371998326  1 1 1
    0.5155985392676610    0.6426372111512713    0.7437763666762502  1 1 1
    0.6886329011744979    0.9849936924034811    0.6909245238577010  1 1 1
    0.0290367083505039    0.1525003732686616    0.6345886538667600  1 1 1
    0.2183250460296212    0.5025057059132125    0.5823094524721231  1 1 1

Gd
0.0
1
    0.3918674548002718    0.8265960489045988    0.5006451917656154  1 1 1
